<instance format="XCSP3" type="CSP">
  <variables>
    <array id="x" note="x is the first Latin square" size="[7][7]"> 0..6 </array>
    <array id="y" note="y is the second Latin square" size="[7][7]"> 0..6 </array>
    <array id="z" note="z is the matrix used to control orthogonality" size="[49]"> 0..48 </array>
  </variables>
  <constraints>
    <group note="ensuring that x is a Latin square">
      <allDifferent> %... </allDifferent>
      <args> x[0][] </args>
      <args> x[1][] </args>
      <args> x[2][] </args>
      <args> x[3][] </args>
      <args> x[4][] </args>
      <args> x[5][] </args>
      <args> x[6][] </args>
      <args> x[][0] </args>
      <args> x[][1] </args>
      <args> x[][2] </args>
      <args> x[][3] </args>
      <args> x[][4] </args>
      <args> x[][5] </args>
      <args> x[][6] </args>
    </group>
    <group note="ensuring that y is a Latin square">
      <allDifferent> %... </allDifferent>
      <args> y[0][] </args>
      <args> y[1][] </args>
      <args> y[2][] </args>
      <args> y[3][] </args>
      <args> y[4][] </args>
      <args> y[5][] </args>
      <args> y[6][] </args>
      <args> y[][0] </args>
      <args> y[][1] </args>
      <args> y[][2] </args>
      <args> y[][3] </args>
      <args> y[][4] </args>
      <args> y[][5] </args>
      <args> y[][6] </args>
    </group>
    <group class="diagonals" note="ensuring that values on diagonals are different">
      <allDifferent> %... </allDifferent>
      <args> x[0][0] x[1][1] x[2][2] x[3][3] x[4][4] x[5][5] x[6][6] </args>
      <args> x[0][6] x[1][5] x[2][4] x[3][3] x[4][2] x[5][1] x[6][0] </args>
      <args> y[0][0] y[1][1] y[2][2] y[3][3] y[4][4] y[5][5] y[6][6] </args>
      <args> y[0][6] y[1][5] y[2][4] y[3][3] y[4][2] y[5][1] y[6][0] </args>
    </group>
    <allDifferent note="ensuring orthogonality of x and y through z"> z[] </allDifferent>
    <group note="computing z from x and y">
      <extension>
        <list> %0 %1 %2 </list>
        <supports> (0,0,0)(0,1,1)(0,2,2)(0,3,3)(0,4,4)(0,5,5)(0,6,6)(1,0,7)(1,1,8)(1,2,9)(1,3,10)(1,4,11)(1,5,12)(1,6,13)(2,0,14)(2,1,15)(2,2,16)(2,3,17)(2,4,18)(2,5,19)(2,6,20)(3,0,21)(3,1,22)(3,2,23)(3,3,24)(3,4,25)(3,5,26)(3,6,27)(4,0,28)(4,1,29)(4,2,30)(4,3,31)(4,4,32)(4,5,33)(4,6,34)(5,0,35)(5,1,36)(5,2,37)(5,3,38)(5,4,39)(5,5,40)(5,6,41)(6,0,42)(6,1,43)(6,2,44)(6,3,45)(6,4,46)(6,5,47)(6,6,48) </supports>
      </extension>
      <args> x[0][0] y[0][0] z[0] </args>
      <args> x[0][1] y[0][1] z[1] </args>
      <args> x[0][2] y[0][2] z[2] </args>
      <args> x[0][3] y[0][3] z[3] </args>
      <args> x[0][4] y[0][4] z[4] </args>
      <args> x[0][5] y[0][5] z[5] </args>
      <args> x[0][6] y[0][6] z[6] </args>
      <args> x[1][0] y[1][0] z[7] </args>
      <args> x[1][1] y[1][1] z[8] </args>
      <args> x[1][2] y[1][2] z[9] </args>
      <args> x[1][3] y[1][3] z[10] </args>
      <args> x[1][4] y[1][4] z[11] </args>
      <args> x[1][5] y[1][5] z[12] </args>
      <args> x[1][6] y[1][6] z[13] </args>
      <args> x[2][0] y[2][0] z[14] </args>
      <args> x[2][1] y[2][1] z[15] </args>
      <args> x[2][2] y[2][2] z[16] </args>
      <args> x[2][3] y[2][3] z[17] </args>
      <args> x[2][4] y[2][4] z[18] </args>
      <args> x[2][5] y[2][5] z[19] </args>
      <args> x[2][6] y[2][6] z[20] </args>
      <args> x[3][0] y[3][0] z[21] </args>
      <args> x[3][1] y[3][1] z[22] </args>
      <args> x[3][2] y[3][2] z[23] </args>
      <args> x[3][3] y[3][3] z[24] </args>
      <args> x[3][4] y[3][4] z[25] </args>
      <args> x[3][5] y[3][5] z[26] </args>
      <args> x[3][6] y[3][6] z[27] </args>
      <args> x[4][0] y[4][0] z[28] </args>
      <args> x[4][1] y[4][1] z[29] </args>
      <args> x[4][2] y[4][2] z[30] </args>
      <args> x[4][3] y[4][3] z[31] </args>
      <args> x[4][4] y[4][4] z[32] </args>
      <args> x[4][5] y[4][5] z[33] </args>
      <args> x[4][6] y[4][6] z[34] </args>
      <args> x[5][0] y[5][0] z[35] </args>
      <args> x[5][1] y[5][1] z[36] </args>
      <args> x[5][2] y[5][2] z[37] </args>
      <args> x[5][3] y[5][3] z[38] </args>
      <args> x[5][4] y[5][4] z[39] </args>
      <args> x[5][5] y[5][5] z[40] </args>
      <args> x[5][6] y[5][6] z[41] </args>
      <args> x[6][0] y[6][0] z[42] </args>
      <args> x[6][1] y[6][1] z[43] </args>
      <args> x[6][2] y[6][2] z[44] </args>
      <args> x[6][3] y[6][3] z[45] </args>
      <args> x[6][4] y[6][4] z[46] </args>
      <args> x[6][5] y[6][5] z[47] </args>
      <args> x[6][6] y[6][6] z[48] </args>
    </group>
    <group class="symmetry-breaking">
      <intension> eq(%0,%1) </intension>
      <args> x[0][0] 0 </args>
      <args> x[0][1] 1 </args>
      <args> x[0][2] 2 </args>
      <args> x[0][3] 3 </args>
      <args> x[0][4] 4 </args>
      <args> x[0][5] 5 </args>
      <args> x[0][6] 6 </args>
      <args> y[0][0] 0 </args>
      <args> y[0][1] 1 </args>
      <args> y[0][2] 2 </args>
      <args> y[0][3] 3 </args>
      <args> y[0][4] 4 </args>
      <args> y[0][5] 5 </args>
      <args> y[0][6] 6 </args>
    </group>
  </constraints>
</instance>
